============================[ Problem Statistics ]=============================|                                                                             ||  Number of variables:          4242                                         ||  Number of clauses:            9690                                         ||  Parse time:                   0.09 s                                       ||                                                                             |============================[ Search Statistics ]==============================| Conflicts |          ORIGINAL         |          LEARNT          | Progress ||           |    Vars  Clauses Literals |    Limit  Clauses Lit/Cl |          |==============================================================================================================================================================restarts              : 1conflicts             : 58             (414 /sec)decisions             : 141            (0.00 % random) (1007 /sec)propagations          : 8144           (58171 /sec)conflict literals     : 2674           (95.90 % deleted)CPU time              : 0.14 sSATISFIABLE